c A SAT instance generated from a 4-CNF formula that had 10 clauses and 6 variables
p cnf 6 12
4 -3 1 5 0
-2 4 3 -1 0
-1 6 -2 0
-5 4 3 -2 0
2 -1 -5 -4 0
-6 -3 2 -4 0
-4 6 2 -3 0
5 -4 1 -2 0
5 6 -3 1 0
-2 6 -5 4 0
1 2 -3 0
3 4 -5 0
